data;
param n := 15;
param p1 := 1 95 2 12 3 76 4 81 5 74 6 52 7 37 8 75 9 11 10 77 11 84 12 37 13 87 14 77 15 94;
param p2 := 1 85 2 13 3 79 4 74 5 85 6 51 7 6 8 71 9 93 10 45 11 14 12 52 13 50 14 54 15 85;
param d := 1 281 2 61 3 437 4 392 5 788 6 751 7 802 8 59 9 244 10 74 11 612 12 761 13 870 14 251 15 780;
end;
